outputs/case_113.model.txt
foreign_cooperation_without_approval = False
engaging_in_business_without_approval = False
internal_control_system_established = True
internal_control_system_effective = False
legal_and_regulatory_compliance_met = False
business_plan_prepared = False
overall_strategy_planned = False
risk_management_policy_planned = False
guidelines_planned = False
risk_management_procedures_prepared = False
execution_guidelines_prepared = False
operational_effectiveness_and_efficiency_met = False
contract_terms_content_level = False
standard_contract_terms_level = False
reporting_reliability_timeliness_transparency_met = False
financial_statements_gaap_compliant = True
transactions_properly_approved = False
representative_involved = False
internal_control_objectives_met = False
representative_illegal_conduct = False
penalty = False
external_financial_reporting_compliant = False
illegal_foreign_cooperation = False
internal_control_established = False
contract_terms_compliance = True
business_strategy_planned = False